# INCAR file for VASP calculation
SYSTEM = DOS-SOC
ISTART = 0                 # Please don't read WAVECAR
ICHARG = 11                # Please read CHGCAR
ENCUT = 520                # Energy cutoff for plane wave basis sets (in eV)
PREC = Accurate            # Precision setting
ISMEAR = 0                 # Gaussian smearing
SIGMA = 0.1                # Smearing width
IBRION = -1                # No update on positions
NSW = 0                    # Static run (sensu stricto)
NELM = 400                 # Moar Electronic Steps
EDIFF = 1E-6               # Convergence criterion for electronic iterations
EDIFFG = -0.02             # Convergence criterion for ionic steps (in eV/Å)
ISIF = 3                   # Relaxation of cell shape and volume, positions
# ISPIN = 2                  # Spin polarization (set to 2 for spin-polarized calculation)
# MAGMOM = 29*1 86*1 144*0   # Initial magnetic moments for Cu (1 for each Cu), In (1 for each In), Se (no magnetization)
NCORE = 4                  # Number of cores per band
LREAL = Auto               # Real-space projection for faster calculations
ALGO = Normal              # Algorithm for electronic minimization
# KPOINTS = Automatic        # Automatic k-point mesh (based on POSCAR size)

# Optional settings for relaxation or analysis
# Uncomment the following line for further optimization or specific analysis
LCHARG = .FALSE.           # No write charge density file (useful for charge density analysis)
LWAVE = .FALSE.            # No write WAVECAR file (useful for restarting or analysis)
NEDOS = 2000
ISYM = 0                   # FK symmetry since SOC
LSORBIT = .TRUE.
LORBIT = 11                # resolve DOS by orbitals
